c Sudoku solution
p cnf 729 0
171 0
239 0
263 0
288 0
328 0
349 0
373 0
384 0
466 0
477 0
498 0
531 0
557 0
565 0
638 0
548 0
643 0
652 0
689 0
459 0
199 0
772 0
842 0
891 0
481 0
444 0
661 0
924 0
134 0
254 0
953 0
979 0
878 0
794 0
864 0
769 0
593 0
582 0
997 0
968 0
747 0
718 0
158 0
187 0
162 0
367 0
837 0
912 0
721 0
941 0
351 0
211 0
315 0
227 0
332 0
145 0
246 0
292 0
275 0
396 0
413 0
116 0
123 0
819 0
617 0
514 0
529 0
626 0
576 0
674 0
695 0
422 0
435 0
825 0
733 0
936 0
883 0
856 0
755 0
786 0
985 0
